20
5
413442
0
0
58 54 33 46 32
1
0
40 50 45 35 42
2
0
42 55 42 74 61
3
0
54 43 35 47 34
4
0
34 48 44 37 65
5
0
76 48 45 36 82
6
0
59 51 74 36 41
7
0
47 58 51 52 56
8
0
44 47 43 38 51
9
0
63 60 65 53 62
10
0
39 44 59 60 52
11
0
47 56 55 81 43
12
0
37 37 58 45 54
13
0
43 53 48 34 40
14
0
57 47 63 58 24
15
0
47 53 45 49 46
16
0
43 62 45 54 51
17
0
54 35 35 45 34
18
0
31 51 33 45 66
19
0
37 42 61 48 60
